problems/csplib-prob056/sonet-models/noch/O2/lingeling/model_7_1-s1ring07-solution000001.solution
language Essence 1.3

letting network be mset({}, {1, 2, 5, 7}, {3, 4, 6, 7}, {4, 5})
$ Here is a simple "visualisation" for the value above.
$ 
$ 1 2 5 7
$ 3 4 6 7
$ 4 5

