problems/csplib-prob056/sonet-models/noch/O2/minion/model_7_1-s1ring07-solution000001.eprime-solution
language ESSENCE' 1.0

letting network_ExplicitWithRepetitionR5_Flag be 4
letting network_ExplicitWithRepetitionR5_Values_ExplicitVarSizeWithMarker_Marker be
        [0, 2, 4, 4, 0, 0, 0, 0, 0, 0, 0, 0, 0, 0, 0, 0; int(1..16)]
letting network_ExplicitWithRepetitionR5_Values_ExplicitVarSizeWithMarker_Values be
        [[1, 1, 1, 1; int(1..4)], [1, 7, 1, 1; int(1..4)], [2, 4, 5, 7; int(1..4)], [3, 4, 6, 7; int(1..4)],
         [1, 1, 1, 1; int(1..4)], [1, 1, 1, 1; int(1..4)], [1, 1, 1, 1; int(1..4)], [1, 1, 1, 1; int(1..4)],
         [1, 1, 1, 1; int(1..4)], [1, 1, 1, 1; int(1..4)], [1, 1, 1, 1; int(1..4)], [1, 1, 1, 1; int(1..4)],
         [1, 1, 1, 1; int(1..4)], [1, 1, 1, 1; int(1..4)], [1, 1, 1, 1; int(1..4)], [1, 1, 1, 1; int(1..4)]; int(1..16)]
